c File: flat50_3_0.col
c
c SOURCE: Joseph Culberson (joe@cs.ualberta.ca)
c DESCRIPTION: Quasi-random coloring problem
c              generated with flatness = 0
c                             probability = 0.139
c                             known coloring = 3
c                             random seed = 1871
c              Creation Date:  Tue Jun  9 12:19:58 1998
c Maximum degree = 8 Minimum degree = 2
c p edge 50 115
c cnf created by edge2cnf
p cnf 150 545
-1 -2 0
-1 -3 0
-2 -3 0
1 2 3 0
-4 -5 0
-4 -6 0
-5 -6 0
4 5 6 0
-7 -8 0
-7 -9 0
-8 -9 0
7 8 9 0
-10 -11 0
-10 -12 0
-11 -12 0
10 11 12 0
-13 -14 0
-13 -15 0
-14 -15 0
13 14 15 0
-16 -17 0
-16 -18 0
-17 -18 0
16 17 18 0
-19 -20 0
-19 -21 0
-20 -21 0
19 20 21 0
-22 -23 0
-22 -24 0
-23 -24 0
22 23 24 0
-25 -26 0
-25 -27 0
-26 -27 0
25 26 27 0
-28 -29 0
-28 -30 0
-29 -30 0
28 29 30 0
-31 -32 0
-31 -33 0
-32 -33 0
31 32 33 0
-34 -35 0
-34 -36 0
-35 -36 0
34 35 36 0
-37 -38 0
-37 -39 0
-38 -39 0
37 38 39 0
-40 -41 0
-40 -42 0
-41 -42 0
40 41 42 0
-43 -44 0
-43 -45 0
-44 -45 0
43 44 45 0
-46 -47 0
-46 -48 0
-47 -48 0
46 47 48 0
-49 -50 0
-49 -51 0
-50 -51 0
49 50 51 0
-52 -53 0
-52 -54 0
-53 -54 0
52 53 54 0
-55 -56 0
-55 -57 0
-56 -57 0
55 56 57 0
-58 -59 0
-58 -60 0
-59 -60 0
58 59 60 0
-61 -62 0
-61 -63 0
-62 -63 0
61 62 63 0
-64 -65 0
-64 -66 0
-65 -66 0
64 65 66 0
-67 -68 0
-67 -69 0
-68 -69 0
67 68 69 0
-70 -71 0
-70 -72 0
-71 -72 0
70 71 72 0
-73 -74 0
-73 -75 0
-74 -75 0
73 74 75 0
-76 -77 0
-76 -78 0
-77 -78 0
76 77 78 0
-79 -80 0
-79 -81 0
-80 -81 0
79 80 81 0
-82 -83 0
-82 -84 0
-83 -84 0
82 83 84 0
-85 -86 0
-85 -87 0
-86 -87 0
85 86 87 0
-88 -89 0
-88 -90 0
-89 -90 0
88 89 90 0
-91 -92 0
-91 -93 0
-92 -93 0
91 92 93 0
-94 -95 0
-94 -96 0
-95 -96 0
94 95 96 0
-97 -98 0
-97 -99 0
-98 -99 0
97 98 99 0
-100 -101 0
-100 -102 0
-101 -102 0
100 101 102 0
-103 -104 0
-103 -105 0
-104 -105 0
103 104 105 0
-106 -107 0
-106 -108 0
-107 -108 0
106 107 108 0
-109 -110 0
-109 -111 0
-110 -111 0
109 110 111 0
-112 -113 0
-112 -114 0
-113 -114 0
112 113 114 0
-115 -116 0
-115 -117 0
-116 -117 0
115 116 117 0
-118 -119 0
-118 -120 0
-119 -120 0
118 119 120 0
-121 -122 0
-121 -123 0
-122 -123 0
121 122 123 0
-124 -125 0
-124 -126 0
-125 -126 0
124 125 126 0
-127 -128 0
-127 -129 0
-128 -129 0
127 128 129 0
-130 -131 0
-130 -132 0
-131 -132 0
130 131 132 0
-133 -134 0
-133 -135 0
-134 -135 0
133 134 135 0
-136 -137 0
-136 -138 0
-137 -138 0
136 137 138 0
-139 -140 0
-139 -141 0
-140 -141 0
139 140 141 0
-142 -143 0
-142 -144 0
-143 -144 0
142 143 144 0
-145 -146 0
-145 -147 0
-146 -147 0
145 146 147 0
-148 -149 0
-148 -150 0
-149 -150 0
148 149 150 0
-52 -1 0
-53 -2 0
-54 -3 0
-64 -1 0
-65 -2 0
-66 -3 0
-88 -1 0
-89 -2 0
-90 -3 0
-91 -1 0
-92 -2 0
-93 -3 0
-112 -1 0
-113 -2 0
-114 -3 0
-121 -1 0
-122 -2 0
-123 -3 0
-127 -1 0
-128 -2 0
-129 -3 0
-73 -4 0
-74 -5 0
-75 -6 0
-79 -4 0
-80 -5 0
-81 -6 0
-94 -4 0
-95 -5 0
-96 -6 0
-109 -4 0
-110 -5 0
-111 -6 0
-118 -4 0
-119 -5 0
-120 -6 0
-136 -4 0
-137 -5 0
-138 -6 0
-148 -4 0
-149 -5 0
-150 -6 0
-79 -7 0
-80 -8 0
-81 -9 0
-118 -7 0
-119 -8 0
-120 -9 0
-133 -7 0
-134 -8 0
-135 -9 0
-55 -10 0
-56 -11 0
-57 -12 0
-73 -10 0
-74 -11 0
-75 -12 0
-118 -10 0
-119 -11 0
-120 -12 0
-127 -10 0
-128 -11 0
-129 -12 0
-52 -13 0
-53 -14 0
-54 -15 0
-67 -13 0
-68 -14 0
-69 -15 0
-76 -13 0
-77 -14 0
-78 -15 0
-82 -13 0
-83 -14 0
-84 -15 0
-103 -13 0
-104 -14 0
-105 -15 0
-139 -13 0
-140 -14 0
-141 -15 0
-142 -13 0
-143 -14 0
-144 -15 0
-97 -16 0
-98 -17 0
-99 -18 0
-103 -16 0
-104 -17 0
-105 -18 0
-115 -16 0
-116 -17 0
-117 -18 0
-139 -16 0
-140 -17 0
-141 -18 0
-148 -16 0
-149 -17 0
-150 -18 0
-52 -19 0
-53 -20 0
-54 -21 0
-88 -19 0
-89 -20 0
-90 -21 0
-91 -19 0
-92 -20 0
-93 -21 0
-139 -19 0
-140 -20 0
-141 -21 0
-64 -22 0
-65 -23 0
-66 -24 0
-94 -22 0
-95 -23 0
-96 -24 0
-103 -22 0
-104 -23 0
-105 -24 0
-64 -25 0
-65 -26 0
-66 -27 0
-67 -25 0
-68 -26 0
-69 -27 0
-76 -25 0
-77 -26 0
-78 -27 0
-88 -25 0
-89 -26 0
-90 -27 0
-115 -25 0
-116 -26 0
-117 -27 0
-136 -25 0
-137 -26 0
-138 -27 0
-148 -25 0
-149 -26 0
-150 -27 0
-82 -28 0
-83 -29 0
-84 -30 0
-118 -28 0
-119 -29 0
-120 -30 0
-148 -28 0
-149 -29 0
-150 -30 0
-61 -31 0
-62 -32 0
-63 -33 0
-79 -31 0
-80 -32 0
-81 -33 0
-145 -31 0
-146 -32 0
-147 -33 0
-58 -34 0
-59 -35 0
-60 -36 0
-88 -34 0
-89 -35 0
-90 -36 0
-142 -34 0
-143 -35 0
-144 -36 0
-55 -37 0
-56 -38 0
-57 -39 0
-79 -37 0
-80 -38 0
-81 -39 0
-82 -37 0
-83 -38 0
-84 -39 0
-103 -37 0
-104 -38 0
-105 -39 0
-121 -37 0
-122 -38 0
-123 -39 0
-124 -37 0
-125 -38 0
-126 -39 0
-130 -37 0
-131 -38 0
-132 -39 0
-73 -40 0
-74 -41 0
-75 -42 0
-106 -40 0
-107 -41 0
-108 -42 0
-85 -43 0
-86 -44 0
-87 -45 0
-100 -43 0
-101 -44 0
-102 -45 0
-106 -43 0
-107 -44 0
-108 -45 0
-112 -43 0
-113 -44 0
-114 -45 0
-133 -43 0
-134 -44 0
-135 -45 0
-52 -46 0
-53 -47 0
-54 -48 0
-58 -46 0
-59 -47 0
-60 -48 0
-76 -46 0
-77 -47 0
-78 -48 0
-136 -46 0
-137 -47 0
-138 -48 0
-55 -49 0
-56 -50 0
-57 -51 0
-76 -49 0
-77 -50 0
-78 -51 0
-112 -49 0
-113 -50 0
-114 -51 0
-106 -55 0
-107 -56 0
-108 -57 0
-121 -55 0
-122 -56 0
-123 -57 0
-112 -58 0
-113 -59 0
-114 -60 0
-115 -58 0
-116 -59 0
-117 -60 0
-133 -58 0
-134 -59 0
-135 -60 0
-103 -61 0
-104 -62 0
-105 -63 0
-127 -61 0
-128 -62 0
-129 -63 0
-148 -64 0
-149 -65 0
-150 -66 0
-109 -67 0
-110 -68 0
-111 -69 0
-112 -67 0
-113 -68 0
-114 -69 0
-121 -70 0
-122 -71 0
-123 -72 0
-148 -70 0
-149 -71 0
-150 -72 0
-124 -73 0
-125 -74 0
-126 -75 0
-127 -73 0
-128 -74 0
-129 -75 0
-130 -73 0
-131 -74 0
-132 -75 0
-142 -73 0
-143 -74 0
-144 -75 0
-103 -76 0
-104 -77 0
-105 -78 0
-133 -76 0
-134 -77 0
-135 -78 0
-145 -76 0
-146 -77 0
-147 -78 0
-106 -79 0
-107 -80 0
-108 -81 0
-109 -79 0
-110 -80 0
-111 -81 0
-118 -79 0
-119 -80 0
-120 -81 0
-133 -79 0
-134 -80 0
-135 -81 0
-115 -82 0
-116 -83 0
-117 -84 0
-127 -85 0
-128 -86 0
-129 -87 0
-106 -88 0
-107 -89 0
-108 -90 0
-133 -88 0
-134 -89 0
-135 -90 0
-112 -91 0
-113 -92 0
-114 -93 0
-115 -91 0
-116 -92 0
-117 -93 0
-139 -91 0
-140 -92 0
-141 -93 0
-142 -91 0
-143 -92 0
-144 -93 0
-112 -94 0
-113 -95 0
-114 -96 0
-106 -97 0
-107 -98 0
-108 -99 0
-127 -97 0
-128 -98 0
-129 -99 0
-142 -97 0
-143 -98 0
-144 -99 0
-109 -100 0
-110 -101 0
-111 -102 0
-115 -100 0
-116 -101 0
-117 -102 0
-142 -100 0
-143 -101 0
-144 -102 0
